20719.0
20,29,46,64,72,76,89,106,112,120,147,168,203,211,225,233,237,265,271,273,292,294,307,322,323,375,430,432,452,475,479,483,495,505,508,533,546,562,574,583,597,598,623,637,665,673,693,721,739,767,842,899,901,926,929,958,988,1001,1007,1062,1078,1103,1109,1165,1167,1170,1189,1193,1198,1205,1214,1287,1311,1314,1345,1353,1369,1376,1392,1406,1411,1436,1450,1456,1464,1472,1477,1486,1491,1527,1599,1615,1617,1622,1623,1637,1656,1657,1698,1731,1772,1853,1877,1887,1899,1925,1933,1951,1972
